
Value of objective function: 9700

Actual values of the variables:
R0                              0
R1                              0
R3                              0
R4                              0
R5                              0
R6                              0
R7                              0
R9                              0
R10                             0
R11                             0
Rini                            0
Rfim                            0
Tini                            0
T0                              0
T1                              4
T3                             24
T5                             20
T4                             11
T7                              5
T10                             5
T6                              0
T9                             20
T11                            13
Tfim                           26
